130
100000
16384
4
8959
7670
15219
760
19956
21020
2803
1678
6840
9480
17347
15483
8000
10828
23733
11331
11875
6100
2327
13541
1860
8254
14772
17072
14118
19489
17354
12357
16527
1862
2681
24241
5283
18888
13439
13775
8743
21989
18387
596
16752
5161
23520
3850
7223
20490
18206
4605
8073
12295
3206
4326
1468
9517
9709
13278
5758
18259
19228
20756
4633
18607
1288
4910
11343
15769
6376
11355
20369
23523
42
1500
9124
20557
8523
15818
24147
3907
17287
8422
15214
6227
9628
8146
19287
508
16320
18949
20983
7934
24729
14874
13465
6909
23829
12454
13586
9659
14433
16598
9182
16708
354
8248
7147
20367
14647
4237
18652
15448
20519
17225
1960
18113
6637
14851
1731
12425
7355
6356
6041
3161
7698
4884
12683
13909
18322
1203
